c File: data_files/evolved_graphs/g0169.col
c
c Auto generated graph
c
p edge 100 875
e 1 15
e 1 17
e 1 21
e 1 36
e 1 43
e 1 45
e 1 58
e 1 69
e 1 70
e 1 80
e 1 84
e 1 93
e 1 98
e 1 99
e 1 100
e 2 25
e 2 31
e 2 49
e 2 74
e 2 80
e 2 88
e 2 90
e 2 93
e 3 9
e 3 43
e 3 60
e 3 72
e 3 76
e 3 82
e 3 85
e 3 91
e 3 92
e 3 93
e 3 98
e 3 100
e 4 6
e 4 17
e 4 18
e 4 38
e 4 43
e 4 45
e 4 49
e 4 61
e 4 62
e 4 66
e 4 68
e 4 75
e 4 76
e 4 86
e 4 99
e 4 100
e 5 44
e 5 49
e 5 51
e 5 55
e 5 66
e 5 71
e 5 75
e 5 82
e 5 87
e 5 95
e 5 96
e 5 100
e 6 7
e 6 8
e 6 23
e 6 35
e 6 38
e 6 39
e 6 42
e 6 59
e 6 64
e 6 72
e 6 74
e 6 85
e 6 95
e 6 99
e 6 100
e 7 9
e 7 23
e 7 51
e 7 70
e 7 71
e 7 74
e 7 76
e 7 80
e 7 82
e 7 83
e 7 98
e 8 16
e 8 56
e 8 73
e 8 78
e 8 79
e 8 81
e 8 84
e 9 24
e 9 38
e 9 58
e 9 72
e 9 75
e 9 86
e 9 87
e 9 88
e 9 96
e 9 97
e 9 98
e 9 99
e 10 46
e 10 53
e 10 57
e 10 76
e 10 86
e 10 95
e 10 98
e 11 43
e 11 44
e 11 45
e 11 49
e 11 55
e 11 56
e 11 67
e 11 81
e 11 95
e 11 98
e 11 99
e 12 25
e 12 47
e 12 50
e 12 65
e 12 68
e 12 70
e 12 72
e 12 75
e 12 79
e 12 81
e 12 87
e 12 96
e 12 99
e 12 100
e 13 16
e 13 24
e 13 26
e 13 36
e 13 41
e 13 50
e 13 52
e 13 57
e 13 66
e 13 71
e 13 72
e 13 75
e 13 80
e 13 84
e 13 86
e 13 95
e 13 98
e 13 99
e 14 15
e 14 19
e 14 34
e 14 41
e 14 44
e 14 45
e 14 62
e 14 65
e 14 67
e 14 69
e 14 70
e 14 76
e 14 78
e 14 85
e 14 87
e 14 95
e 14 97
e 14 100
e 15 39
e 15 49
e 15 56
e 15 64
e 15 69
e 15 78
e 15 83
e 15 87
e 15 96
e 15 98
e 16 20
e 16 37
e 16 41
e 16 62
e 16 68
e 16 71
e 16 75
e 16 77
e 16 81
e 16 83
e 16 98
e 17 20
e 17 21
e 17 25
e 17 41
e 17 58
e 17 62
e 17 75
e 17 79
e 17 95
e 17 98
e 17 99
e 18 20
e 18 26
e 18 29
e 18 30
e 18 49
e 18 54
e 18 59
e 18 68
e 18 78
e 18 86
e 18 98
e 19 24
e 19 25
e 19 34
e 19 40
e 19 48
e 19 51
e 19 57
e 19 70
e 19 97
e 19 99
e 20 25
e 20 40
e 20 55
e 20 72
e 20 84
e 20 87
e 20 95
e 20 97
e 20 99
e 20 100
e 21 25
e 21 42
e 21 47
e 21 48
e 21 49
e 21 51
e 21 61
e 21 68
e 21 70
e 21 72
e 21 74
e 21 79
e 21 84
e 21 99
e 22 56
e 22 62
e 22 69
e 22 76
e 22 83
e 22 85
e 22 100
e 23 28
e 23 34
e 23 41
e 23 48
e 23 49
e 23 54
e 23 58
e 23 65
e 23 68
e 23 80
e 23 83
e 23 85
e 23 87
e 23 89
e 23 97
e 23 99
e 24 38
e 24 43
e 24 48
e 24 60
e 24 67
e 24 68
e 24 71
e 24 75
e 24 95
e 24 96
e 24 97
e 25 29
e 25 33
e 25 38
e 25 48
e 25 67
e 25 70
e 25 71
e 25 74
e 25 83
e 25 100
e 26 41
e 26 42
e 26 47
e 26 49
e 26 53
e 26 55
e 26 57
e 26 76
e 26 95
e 26 96
e 27 33
e 27 34
e 27 37
e 27 49
e 27 52
e 27 67
e 27 72
e 27 83
e 27 85
e 27 86
e 27 97
e 27 98
e 28 35
e 28 51
e 28 54
e 28 63
e 28 72
e 28 100
e 29 50
e 29 51
e 29 70
e 29 98
e 30 32
e 30 46
e 30 50
e 30 59
e 30 76
e 30 99
e 31 36
e 31 47
e 31 66
e 31 73
e 31 75
e 31 83
e 31 84
e 31 87
e 31 99
e 31 100
e 32 43
e 32 48
e 32 49
e 32 64
e 32 66
e 32 69
e 32 70
e 32 84
e 32 96
e 32 97
e 32 98
e 32 99
e 32 100
e 33 36
e 33 37
e 33 40
e 33 66
e 33 71
e 33 95
e 34 47
e 34 48
e 34 61
e 34 76
e 34 81
e 34 83
e 34 97
e 34 98
e 34 99
e 34 100
e 35 63
e 35 70
e 35 71
e 35 77
e 35 82
e 35 84
e 35 98
e 35 99
e 36 40
e 36 41
e 36 52
e 36 54
e 36 59
e 36 60
e 36 61
e 36 63
e 36 75
e 36 79
e 36 83
e 36 95
e 36 96
e 36 97
e 36 98
e 37 71
e 37 72
e 37 77
e 37 82
e 37 84
e 37 86
e 37 88
e 37 97
e 37 100
e 38 73
e 38 79
e 38 81
e 38 87
e 38 96
e 38 97
e 38 100
e 39 44
e 39 54
e 39 63
e 39 70
e 39 78
e 39 84
e 39 85
e 39 96
e 39 98
e 39 99
e 40 45
e 40 69
e 40 73
e 40 80
e 40 83
e 40 84
e 41 49
e 41 52
e 41 59
e 41 68
e 41 87
e 41 95
e 41 99
e 42 47
e 42 74
e 42 78
e 42 79
e 42 82
e 42 86
e 42 96
e 43 55
e 43 59
e 43 66
e 43 76
e 43 84
e 43 95
e 43 99
e 44 45
e 44 65
e 44 73
e 44 79
e 44 82
e 44 85
e 44 88
e 44 96
e 44 97
e 44 99
e 44 100
e 45 46
e 45 59
e 45 62
e 45 74
e 45 98
e 46 49
e 46 53
e 46 55
e 46 60
e 46 64
e 46 65
e 46 67
e 46 70
e 46 88
e 46 95
e 46 100
e 47 61
e 47 62
e 47 64
e 47 66
e 47 67
e 47 71
e 47 73
e 47 74
e 47 86
e 47 100
e 48 58
e 48 77
e 48 80
e 48 82
e 48 85
e 48 87
e 48 95
e 48 99
e 48 100
e 49 70
e 49 71
e 49 74
e 49 81
e 49 86
e 49 96
e 49 97
e 49 99
e 50 52
e 50 63
e 50 71
e 50 74
e 50 75
e 50 76
e 50 77
e 50 83
e 50 95
e 51 77
e 51 80
e 51 82
e 51 87
e 51 95
e 51 99
e 51 100
e 52 69
e 52 78
e 52 82
e 52 84
e 52 85
e 52 87
e 52 97
e 52 100
e 53 81
e 53 87
e 53 98
e 53 99
e 54 63
e 54 67
e 54 83
e 54 87
e 54 89
e 54 91
e 54 92
e 54 93
e 54 94
e 54 97
e 55 57
e 55 77
e 55 78
e 55 89
e 55 91
e 55 92
e 55 93
e 55 94
e 55 95
e 55 97
e 55 99
e 55 100
e 56 58
e 56 61
e 56 64
e 56 80
e 56 89
e 56 90
e 56 91
e 56 92
e 56 93
e 56 94
e 56 100
e 57 70
e 57 78
e 57 81
e 57 87
e 57 88
e 57 89
e 57 90
e 57 91
e 57 92
e 57 93
e 57 94
e 57 97
e 57 98
e 58 62
e 58 64
e 58 74
e 58 75
e 58 76
e 58 86
e 58 89
e 58 90
e 58 91
e 58 92
e 58 93
e 58 94
e 58 96
e 58 97
e 58 98
e 58 99
e 59 73
e 59 75
e 59 78
e 59 81
e 59 88
e 59 89
e 59 90
e 59 91
e 59 92
e 59 93
e 59 97
e 59 98
e 59 99
e 59 100
e 60 63
e 60 73
e 60 79
e 60 81
e 60 89
e 60 90
e 60 91
e 60 92
e 60 93
e 60 94
e 60 96
e 60 97
e 60 99
e 61 62
e 61 70
e 61 73
e 61 76
e 61 83
e 61 89
e 61 90
e 61 91
e 61 92
e 61 93
e 61 94
e 61 98
e 62 64
e 62 69
e 62 70
e 62 75
e 62 79
e 62 84
e 62 87
e 62 89
e 62 90
e 62 91
e 62 92
e 62 93
e 62 94
e 62 96
e 62 97
e 63 66
e 63 73
e 63 76
e 63 78
e 63 89
e 63 90
e 63 91
e 63 92
e 63 93
e 63 94
e 63 100
e 64 70
e 64 72
e 64 78
e 64 79
e 64 89
e 64 90
e 64 91
e 64 92
e 64 93
e 64 94
e 64 95
e 64 96
e 64 97
e 65 70
e 65 75
e 65 76
e 65 83
e 65 84
e 65 85
e 65 86
e 65 88
e 65 90
e 65 91
e 65 92
e 65 93
e 65 94
e 65 100
e 66 69
e 66 70
e 66 76
e 66 90
e 66 91
e 66 92
e 66 93
e 66 94
e 66 99
e 66 100
e 67 78
e 67 83
e 67 89
e 67 90
e 67 91
e 67 92
e 67 93
e 67 94
e 67 96
e 67 98
e 68 73
e 68 87
e 68 89
e 68 90
e 68 91
e 68 92
e 68 93
e 68 94
e 68 95
e 68 98
e 68 99
e 69 79
e 69 89
e 69 90
e 69 91
e 69 92
e 69 93
e 69 94
e 69 96
e 69 99
e 69 100
e 70 75
e 70 90
e 70 91
e 70 92
e 70 93
e 70 94
e 70 95
e 70 96
e 71 78
e 71 80
e 71 81
e 71 89
e 71 90
e 71 91
e 71 92
e 71 93
e 71 94
e 71 97
e 71 99
e 72 73
e 72 85
e 72 89
e 72 90
e 72 91
e 72 92
e 72 93
e 72 94
e 72 97
e 72 99
e 72 100
e 73 89
e 73 90
e 73 91
e 73 92
e 73 93
e 73 94
e 73 95
e 73 98
e 73 99
e 73 100
e 74 85
e 74 88
e 74 89
e 74 90
e 74 91
e 74 92
e 74 93
e 74 94
e 74 97
e 74 98
e 74 99
e 75 79
e 75 89
e 75 90
e 75 91
e 75 92
e 75 93
e 75 94
e 75 96
e 75 98
e 75 100
e 76 80
e 76 86
e 76 89
e 76 90
e 76 91
e 76 92
e 76 93
e 76 94
e 76 96
e 77 78
e 77 83
e 77 89
e 77 90
e 77 91
e 77 92
e 77 93
e 77 94
e 77 95
e 77 96
e 77 100
e 78 80
e 78 84
e 78 88
e 78 89
e 78 90
e 78 91
e 78 92
e 78 93
e 78 94
e 78 95
e 78 97
e 78 98
e 78 99
e 79 89
e 79 90
e 79 91
e 79 92
e 79 93
e 79 94
e 80 83
e 80 88
e 80 89
e 80 90
e 80 91
e 80 92
e 80 93
e 80 94
e 80 95
e 80 100
e 81 87
e 81 89
e 81 90
e 81 91
e 81 92
e 81 93
e 81 94
e 81 98
e 82 89
e 82 90
e 82 91
e 82 92
e 82 93
e 82 94
e 82 96
e 82 98
e 82 100
e 84 95
e 85 88
e 85 100
e 86 94
e 86 95
e 86 96
e 86 99
e 86 100
e 87 95
e 87 96
e 87 97
e 87 100
e 88 95
e 88 100
e 89 91
e 89 92
e 90 96
e 92 96
e 93 100
e 95 97
e 97 100
